CMPL model generation - running

CMPL version: 1.11.0
Authors: Thomas Schleiff, Mike Steglich
Distributed under the GPLv3 

create model instance ...
write model instance ...
CMPL model generation - finished

Solver - running


Welcome to IBM(R) ILOG(R) CPLEX(R) Interactive Optimizer 12.7.1.0
  with Simplex, Mixed Integer & Barrier Optimizers
5725-A06 5725-A29 5724-Y48 5724-Y49 5724-Y54 5724-Y55 5655-Y21
Copyright IBM Corp. 1988, 2017.  All Rights Reserved.

Type 'help' for a list of available commands.
Type 'help' followed by a command name for more
information on commands.

CPLEX> Specified objective sense: MINIMIZE
Selected objective  name:  line[1]
Selected RHS        name:  RHS
Selected bound      name:  BOUND
Problem '/tmp/cmpl.T27382.mps' read.
Read time = 0.11 sec. (16.18 ticks)
CPLEX> New value for mixed integer optimality gap tolerance: 0.007
CPLEX> CPLEX> CPXPARAM_Read_APIEncoding                        "UTF-8"
CPXPARAM_MIP_Tolerances_MIPGap                   0.0070000000000000001
Tried aggregator 3 times.
MIP Presolve eliminated 65014 rows and 42598 columns.
MIP Presolve modified 6826 coefficients.
Aggregator did 1427 substitutions.
Reduced MIP has 5724 rows, 4168 columns, and 17635 nonzeros.
Reduced MIP has 2828 binaries, 0 generals, 0 SOSs, and 0 indicators.
Presolve time = 0.11 sec. (84.28 ticks)
Found incumbent of value 3838.827531 after 0.13 sec. (98.95 ticks)
Probing fixed 0 vars, tightened 524 bounds.
Probing time = 0.03 sec. (12.78 ticks)
Tried aggregator 1 time.
MIP Presolve modified 1434 coefficients.
Reduced MIP has 5724 rows, 4168 columns, and 17635 nonzeros.
Reduced MIP has 2996 binaries, 0 generals, 0 SOSs, and 0 indicators.
Presolve time = 0.02 sec. (13.52 ticks)
Probing time = 0.01 sec. (2.76 ticks)
Clique table members: 2378.
MIP emphasis: balance optimality and feasibility.
MIP search method: dynamic search.
Parallel mode: none, using 1 thread.
Root relaxation solution time = 0.23 sec. (151.03 ticks)

        Nodes                                         Cuts/
   Node  Left     Objective  IInf  Best Integer    Best Bound    ItCnt     Gap

*     0+    0                         3838.8275     -366.1130           109.54%
      0     0     1760.3414   364     3838.8275     1760.3414     4568   54.14%
*     0+    0                         1790.2522     1760.3414             1.67%
      0     0     1760.9311   382     1790.2522     Cuts: 352     5544    1.64%
*     0+    0                         1784.8721     1760.9311             1.34%
      0     0     1762.3006   360     1784.8721     Cuts: 405     6593    1.26%
*     0+    0                         1784.4950     1762.3006             1.24%
      0     0     1763.3974   356     1784.4950     Cuts: 385     7518    1.18%
*     0+    0                         1783.2314     1763.3974             1.11%
*     0+    0                         1783.1124     1763.3974             1.11%
*     0+    0                         1782.9321     1763.3974             1.10%
      0     0     1764.1733   344     1782.9321     Cuts: 383     8264    1.05%
*     0+    0                         1781.4463     1764.1733             0.97%
      0     0     1764.9492   342     1781.4463     Cuts: 377     8942    0.93%
*     0+    0                         1779.9147     1764.9492             0.84%
      0     0     1765.5317   344     1779.9147     Cuts: 331     9416    0.81%
*     0+    0                         1779.7799     1765.5317             0.80%
*     0+    0                         1779.6725     1765.5317             0.79%
      0     0     1765.9657   348     1779.6725     Cuts: 276     9843    0.77%
      0     0     1766.2462   352     1779.6725     Cuts: 237    10158    0.75%
      0     0     1766.4640   360     1779.6725     Cuts: 187    10433    0.74%
      0     0     1766.6025   351     1779.6725     Cuts: 155    10659    0.73%
      0     0     1766.7615   350     1779.6725     Cuts: 140    10845    0.73%
*     0+    0                         1776.9388     1766.7615             0.57%

Flow cuts applied:  546
Mixed integer rounding cuts applied:  537
Gomory fractional cuts applied:  2

Root node processing (before b&c):
  Real time             =    2.74 sec. (2040.52 ticks)
Sequential b&c:
  Real time             =    0.00 sec. (0.00 ticks)
                          ------------
Total (root+branch&cut) =    2.74 sec. (2040.52 ticks)

Solution pool: 12 solutions saved.

MIP - Integer optimal, tolerance (0.007/1e-06):  Objective =  1.7769387920e+03
Current MIP best bound =  1.7667615205e+03 (gap = 10.1773, 0.57%)
Solution time =    2.74 sec.  Iterations = 10845  Nodes = 0 (1)
Deterministic time = 2040.66 ticks  (743.42 ticks/sec)

CPLEX> Incumbent solution written to file '/tmp/cmpl.T27382.gsol'.
CPLEX> 
CMPL: Time used for model generation: 10 seconds
CMPL: Time used for solving the model: 5 seconds


Solution written to ASCII file: /media/sf_ltf/results/output_generated/2017-01-09-4/fair-nonlinear.sol

Solver - finished
